! RKS b3lyp_g def2-svp grid6 nofinalgrid 
! xyzfile
%maxcore 1000

*xyz 0 1
 C                 -4.82378852   -1.56387663    0.00000000
 H                 -4.46713410   -2.57268663    0.00000000
 H                 -4.46711568   -1.05947844   -0.87365150
 H                 -5.89378852   -1.56386344    0.00000000
 C                 -4.31044630   -0.83792036    1.25740497
 H                 -4.66550265    0.17145273    1.25642745
 H                 -4.66871541   -1.34118879    2.13105486
 C                 -2.77044891   -0.84037671    1.25881364
 H                 -2.41218042   -0.33743483    0.38497547
 H                 -2.41539267   -1.84974940    1.26016738
 C                 -2.25710642   -0.11395139    2.51594759
 H                 -2.61544323   -0.61684569    3.38978513
 H                 -2.61209480    0.89544512    2.51455266
 C                 -0.71710925   -0.11651080    2.51741591
 H                 -0.35877330    0.38637575    1.64357355
 H                 -0.36212065   -1.12590722    2.51881957
 C                 -0.20376674    0.60992522    3.77454365
 H                 -0.56210498    0.10703940    4.64838548
 H                 -0.55875366    1.61932223    3.77313924
 C                  1.33623043    0.60736361    3.77601325
 H                  1.69456782    1.11025067    2.90217178
 H                  1.69121758   -0.40203332    3.77741602
 C                  1.84957293    1.33379742    5.03314227
 H                  1.49123612    0.83090904    5.90698322
 H                  2.91957097    1.33201912    5.03416247
 H                  1.49458457    2.34319392    5.03174052
*

$new_job
! RKS def2-svp grid6 nofinalgrid
!  readints 
! def2-svp/C
%scf maxiter 1 end
%maxcore 1000
%method
 Functional b3lyp_g
 ACM 0.8033, 0.2107, 0.6789
 ScalLDAC = 0.6789
 ScalMP2C = 0.3211
end

*xyzfile 0 1


